17874
1 0 1 0 1 1 1 0 1 0 0 1 0 0 1 0 1 1 0 0 1 1 0 1 1 1 0 1 0 0 
20 11 20 2 20 5 2 24 14 17 24 16 8 20 17 14 14 17 5 11 2 0 5 17 5 8 2 24 5 24 5 25 6 25 20 20 24 24 0 14 0 14 24 8 24 14 0 20 27 8 5 14 14 5 20 20 17 11 0 14 0 5 20 11 11 11 24 0 5 24 20 6 11 17 24 8 24 20 14 24 20 0 8 17 17 17 17 4 20 5 2 24 17 11 17 5 2 2 21 16 8 17 17 25 2 25 17 11 14 8 14 14 2 11 11 21 5 5 5 11 5 8 25 8 16 0 25 25 0 21 0 11 11 21 8 14 4 25 8 0 0 8 8 2 2 25 25 11 2 0 
